 200 57 
 84 96 33 51 12 28 45 65 72 37 34 95 
 17 72 40 61 90 94 5 18 66 57 94 82 
 96 35 21 19 97 7 80 46 19 87 14 65 
 93 26 28 95 84 6 84 44 51 9 59 10 
 97 100 80 57 15 56 30 40 93 
 45 
 1 2 3 4 5 6 7 8 9 10 12 14 
 15 17 18 19 22 24 25 26 27 29 30 31 
 33 35 36 37 38 39 40 41 42 43 44 45 
 46 47 49 50 51 52 55 56 57 
 19 
 1 3 4 5 10 15 16 23 25 26 29 37 
 39 44 47 49 55 56 57 
 11 
 4 8 18 19 20 37 45 49 51 52 53 
 33 
 1 2 3 7 10 13 14 16 17 19 21 22 
 23 24 27 28 34 35 36 37 38 39 41 42 
 43 44 46 47 48 49 50 51 56 
 14 
 5 6 12 14 15 16 18 24 28 38 49 53 
 54 57 
 7 
 8 10 19 20 24 27 31 
 21 
 2 3 4 8 12 13 14 16 17 20 24 29 
 32 35 36 37 42 43 46 51 55 
 30 
 4 5 6 9 10 12 14 15 20 21 22 23 
 27 28 29 30 31 32 36 38 39 40 44 45 
 46 50 51 53 54 56 
 9 
 2 7 13 15 25 31 33 40 44 
 44 
 1 2 3 4 5 7 9 11 12 14 15 16 
 17 19 20 21 22 25 26 27 29 30 31 32 
 33 34 35 36 37 38 39 40 42 45 46 48 
 49 50 51 52 53 55 56 57 
 13 
 13 21 24 29 30 37 38 43 46 47 53 54 
 56 
 33 
 1 3 7 8 12 13 14 18 20 21 25 26 
 27 28 29 30 31 32 33 34 35 37 41 42 
 43 44 46 47 53 54 55 56 57 
 54 
 2 3 4 5 6 7 8 9 10 12 13 15 
 16 17 18 19 20 21 22 23 24 25 26 27 
 28 29 30 31 32 33 34 35 36 37 38 39 
 40 41 42 43 44 45 46 47 48 49 50 51 
 52 53 54 55 56 57 
 56 
 1 2 3 4 5 6 7 8 9 10 11 12 
 13 14 15 16 17 18 19 20 21 22 23 24 
 25 26 27 28 29 30 31 32 33 34 35 36 
 37 38 39 40 41 43 44 45 46 47 48 49 
 50 51 52 53 54 55 56 57 
 57 
 1 2 3 4 5 6 7 8 9 10 11 12 
 13 14 15 16 17 18 19 20 21 22 23 24 
 25 26 27 28 29 30 31 32 33 34 35 36 
 37 38 39 40 41 42 43 44 45 46 47 48 
 49 50 51 52 53 54 55 56 57 
 7 
 1 6 7 14 26 38 41 
 2 
 14 15 
 48 
 1 2 3 4 5 6 8 9 10 11 12 13 
 15 16 17 18 19 21 22 23 25 27 28 30 
 31 32 34 35 36 37 38 39 40 41 42 43 
 44 46 47 48 49 50 51 52 53 54 56 57 
 36 
 2 5 6 9 12 13 14 15 17 18 19 20 
 21 25 28 29 30 31 33 34 35 36 37 39 
 41 43 44 46 47 48 49 52 53 54 56 57 
 31 
 1 2 3 8 9 10 14 15 19 22 23 25 
 26 27 29 30 31 34 35 36 39 40 42 43 
 46 47 48 49 50 52 57 
 11 
 2 3 7 9 10 19 21 38 42 43 46 
 24 
 4 5 9 10 13 19 20 21 22 24 25 27 
 28 29 34 38 39 44 46 47 49 51 53 54 
 32 
 1 2 3 4 6 7 8 9 10 13 14 16 
 17 19 20 21 22 24 26 27 28 30 31 32 
 37 40 46 47 49 50 51 55 
 23 
 1 8 15 17 19 22 23 26 27 28 31 33 
 37 38 39 40 43 45 46 49 51 56 57 
 43 
 1 2 3 5 6 7 8 9 11 12 13 14 
 15 16 17 18 19 20 21 25 26 28 30 31 
 32 33 34 36 37 38 39 40 42 44 45 46 
 47 50 51 54 55 56 57 
 18 
 1 2 3 4 14 17 18 23 29 31 38 39 
 41 42 45 47 51 52 
 9 
 2 4 12 16 27 30 39 50 51 
 7 
 27 31 32 34 35 36 44 
 7 
 3 14 15 26 30 47 49 
 41 
 1 2 4 5 6 8 9 10 11 12 13 14 
 15 17 19 20 21 23 25 28 29 30 31 34 
 35 36 37 39 40 41 42 43 44 47 49 50 
 52 53 54 55 57 
 17 
 1 5 8 9 13 19 21 22 29 30 36 38 
 40 49 50 54 55 
 25 
 5 8 13 15 17 20 21 23 27 29 31 33 
 34 35 37 39 40 41 43 45 47 49 51 55 
 57 
 24 
 1 4 6 7 9 11 12 13 16 17 18 19 
 20 22 25 28 30 32 39 43 46 47 48 51 
 5 
 7 8 20 49 57 
 36 
 1 5 6 7 8 9 10 11 13 14 15 16 
 17 18 23 24 25 26 27 31 33 34 37 39 
 41 42 44 45 48 49 50 52 53 54 55 57 
 25 
 1 4 8 9 10 11 14 19 23 27 28 30 
 31 32 34 35 36 37 39 44 48 49 50 53 
 56 
 45 
 1 2 3 4 5 6 7 9 10 12 13 14 
 15 16 17 18 19 20 21 22 23 25 26 27 
 28 29 30 32 35 36 37 38 39 40 41 42 
 44 48 49 51 52 53 54 55 57 
 55 
 1 2 3 4 5 6 7 8 9 10 11 13 
 14 15 16 17 18 19 20 21 22 23 24 25 
 26 28 29 30 31 32 33 34 35 36 37 38 
 39 40 41 42 43 44 45 46 47 48 49 50 
 51 52 53 54 55 56 57 
 39 
 1 3 4 5 7 9 10 11 13 14 15 16 
 17 18 19 20 22 23 25 26 27 28 29 30 
 33 35 36 37 38 39 40 41 43 44 46 47 
 48 52 57 
 30 
 5 6 8 10 11 12 13 14 16 18 24 26 
 27 28 30 31 32 34 39 41 42 43 44 46 
 47 51 52 53 54 57 
 49 
 1 2 3 4 5 6 7 9 10 11 12 13 
 14 15 16 17 19 20 21 22 23 24 25 26 
 27 28 29 30 32 33 34 35 36 37 38 39 
 40 41 42 43 45 46 47 50 51 52 53 55 
 56 
 53 
 1 2 3 4 5 6 7 8 9 10 11 12 
 13 14 15 16 17 18 19 20 21 22 23 24 
 25 26 27 28 29 30 32 33 34 36 37 38 
 39 40 41 42 43 44 46 47 48 49 50 51 
 52 53 54 55 57 
 28 
 2 3 5 7 12 13 14 17 19 21 22 23 
 26 27 29 30 33 35 37 38 39 40 46 48 
 50 55 56 57 
 28 
 2 4 9 12 13 15 16 17 19 20 22 31 
 33 35 37 38 40 41 42 43 44 45 47 48 
 53 54 55 57 
 22 
 1 3 4 7 8 12 13 17 20 26 28 29 
 30 32 34 41 44 45 49 51 56 57 
 28 
 2 3 4 8 11 12 13 14 16 19 21 23 
 25 28 34 37 38 39 42 43 45 46 48 50 
 51 52 53 55 
 34 
 10 11 12 13 14 16 17 18 20 24 25 26 
 27 28 30 32 33 35 36 38 39 40 43 44 
 45 46 47 49 51 52 53 55 56 57 
 30 
 4 5 6 8 9 10 11 13 15 17 18 20 
 22 23 28 29 30 31 33 34 35 43 44 47 
 48 51 52 54 55 56 
 2 
 36 53 
 5 
 5 26 29 44 53 
 54 
 1 2 3 4 5 7 8 9 10 11 12 13 
 14 15 16 17 18 19 20 21 22 23 24 25 
 26 27 28 30 31 33 34 35 36 37 38 39 
 40 41 42 43 44 45 46 47 48 49 50 51 
 52 53 54 55 56 57 
 38 
 3 4 5 6 7 8 9 10 11 12 15 16 
 18 19 20 21 23 24 27 28 29 31 32 33 
 36 38 39 40 41 42 43 46 48 49 52 53 
 55 56 
 35 
 2 3 4 6 8 10 11 13 14 17 18 19 
 20 24 26 27 28 29 30 31 32 33 34 36 
 38 39 40 41 42 44 48 49 52 53 57 
 52 
 1 2 3 4 5 6 9 10 11 12 15 16 
 17 18 19 20 21 22 23 24 25 26 27 28 
 29 30 31 32 33 34 35 36 37 38 39 40 
 41 42 43 44 45 46 47 48 49 50 52 53 
 54 55 56 57 
 50 
 1 2 3 4 5 6 7 8 9 10 11 12 
 13 14 16 17 19 20 21 22 23 25 26 27 
 28 29 30 31 32 34 36 37 38 39 41 42 
 43 44 45 46 47 48 49 50 51 52 53 54 
 55 57 
 9 
 1 4 17 22 38 40 42 44 55 
 31 
 5 8 9 10 11 13 18 19 21 22 23 25 
 26 27 29 30 31 33 35 36 37 38 41 42 
 44 46 50 52 53 54 57 
 5 
 18 22 24 37 43 
 19 
 5 10 13 15 18 19 24 30 33 35 38 39 
 43 46 48 51 53 54 55 
 45 
 1 2 3 4 5 6 7 8 9 12 13 15 
 16 17 18 21 22 23 24 25 26 27 28 29 
 30 31 32 33 34 36 38 39 40 42 43 44 
 45 47 48 50 51 52 55 56 57 
 6 
 1 11 16 18 28 42 
 7 
 8 11 18 28 34 42 52 
 48 
 1 3 4 5 6 7 8 9 10 11 14 15 
 16 17 18 19 20 21 22 23 24 25 27 29 
 30 31 32 33 35 37 38 39 40 41 42 43 
 45 46 47 48 50 51 52 53 54 55 56 57 
 29 
 1 2 3 4 5 6 10 11 12 16 17 19 
 21 24 26 28 29 31 37 40 41 42 43 44 
 45 46 49 50 51 
 52 
 1 2 3 4 5 6 8 9 10 11 12 13 
 14 15 16 17 18 19 20 21 22 23 24 25 
 26 27 28 29 30 31 32 33 34 35 36 37 
 38 40 42 44 45 46 47 48 49 50 51 52 
 53 54 55 56 
 8 
 10 12 26 27 34 47 53 54 
 19 
 1 16 17 18 20 22 23 29 30 31 33 35 
 42 44 47 48 49 51 56 
 26 
 2 4 8 11 13 16 17 18 19 21 23 24 
 25 26 31 32 34 39 43 46 47 48 52 53 
 54 57 
 55 
 1 2 3 4 5 6 7 8 9 10 11 12 
 13 14 15 16 17 18 19 20 21 22 23 24 
 25 26 27 28 29 30 31 32 33 34 35 36 
 37 38 40 41 42 43 44 45 46 47 48 49 
 51 52 53 54 55 56 57 
 22 
 1 2 3 4 7 8 17 18 19 21 22 30 
 34 36 39 41 47 48 49 51 55 56 
 39 
 1 2 3 4 5 6 7 8 9 10 11 12 
 13 14 15 16 19 21 23 25 29 30 31 32 
 33 36 37 40 41 42 43 45 46 48 49 52 
 54 55 56 
 50 
 1 2 4 5 6 7 8 10 11 12 13 14 
 15 16 17 19 20 21 22 23 24 25 26 28 
 29 30 31 33 34 35 36 37 38 40 41 42 
 43 44 45 46 47 48 49 51 52 53 54 55 
 56 57 
 29 
 2 8 11 12 13 15 16 19 20 23 25 27 
 28 29 33 34 35 36 37 40 42 46 49 50 
 51 52 53 55 57 
 40 
 1 2 3 4 5 6 7 8 9 12 14 15 
 16 17 18 19 20 21 22 23 24 25 26 29 
 31 33 34 36 37 39 40 42 47 50 51 52 
 54 55 56 57 
 6 
 2 22 32 37 40 44 
 43 
 1 2 4 5 6 7 9 11 12 13 14 15 
 16 17 18 20 21 22 23 24 26 27 29 30 
 31 32 34 35 38 39 42 43 45 46 47 49 
 50 51 52 53 54 55 56 
 22 
 2 3 6 7 10 15 18 19 22 23 26 27 
 30 35 36 39 42 44 47 53 54 57 
 57 
 1 2 3 4 5 6 7 8 9 10 11 12 
 13 14 15 16 17 18 19 20 21 22 23 24 
 25 26 27 28 29 30 31 32 33 34 35 36 
 37 38 39 40 41 42 43 44 45 46 47 48 
 49 50 51 52 53 54 55 56 57 
 20 
 6 9 13 17 18 19 22 24 25 29 34 35 
 36 38 40 42 46 52 54 57 
 46 
 2 3 5 6 7 8 10 11 12 14 15 16 
 18 19 20 21 22 25 26 27 29 30 31 32 
 34 35 36 37 38 39 40 41 42 43 44 45 
 46 48 49 50 51 52 53 55 56 57 
 57 
 1 2 3 4 5 6 7 8 9 10 11 12 
 13 14 15 16 17 18 19 20 21 22 23 24 
 25 26 27 28 29 30 31 32 33 34 35 36 
 37 38 39 40 41 42 43 44 45 46 47 48 
 49 50 51 52 53 54 55 56 57 
 16 
 1 2 7 11 17 19 21 24 32 36 37 40 
 41 46 50 56 
 16 
 2 11 16 23 26 27 28 29 35 38 39 40 
 42 50 54 56 
 44 
 2 4 5 6 7 10 11 12 13 14 15 16 
 18 19 20 21 23 24 25 28 29 31 32 34 
 35 36 37 38 40 41 43 44 45 46 47 49 
 50 51 52 53 54 55 56 57 
 11 
 14 17 18 22 24 26 30 34 35 49 57 
 57 
 1 2 3 4 5 6 7 8 9 10 11 12 
 13 14 15 16 17 18 19 20 21 22 23 24 
 25 26 27 28 29 30 31 32 33 34 35 36 
 37 38 39 40 41 42 43 44 45 46 47 48 
 49 50 51 52 53 54 55 56 57 
 11 
 2 4 9 10 17 21 24 26 27 35 41 
 10 
 2 14 26 36 39 43 49 50 53 56 
 54 
 1 2 3 4 5 6 7 8 9 10 11 12 
 14 15 16 17 18 19 20 21 22 23 24 25 
 26 27 28 29 30 31 32 33 34 35 36 37 
 38 40 41 42 43 44 45 46 47 49 50 51 
 52 53 54 55 56 57 
 46 
 1 2 3 4 6 7 8 10 11 12 13 14 
 15 16 17 19 20 21 22 23 24 25 26 28 
 29 30 31 34 35 39 40 41 43 44 45 46 
 47 48 49 50 51 52 53 54 55 56 
 26 
 1 2 3 4 7 10 16 17 18 20 21 24 
 26 27 29 32 33 35 37 38 40 41 46 48 
 51 56 
 11 
 1 13 17 19 30 34 35 38 39 44 55 
 47 
 1 3 4 5 6 7 8 9 10 11 14 15 
 16 17 18 19 21 22 23 24 26 27 28 29 
 30 31 33 34 36 37 38 39 41 42 43 44 
 46 47 49 50 51 52 53 54 55 56 57 
 56 
 1 2 3 4 5 6 7 8 9 10 11 13 
 14 15 16 17 18 19 20 21 22 23 24 25 
 26 27 28 29 30 31 32 33 34 35 36 37 
 38 39 40 41 42 43 44 45 46 47 48 49 
 50 51 52 53 54 55 56 57 
 3 
 30 32 39 
 28 
 3 5 6 7 8 11 13 14 17 19 20 21 
 23 24 27 29 32 33 35 39 40 41 43 48 
 51 52 54 55 
 31 
 1 5 6 7 11 13 14 16 18 19 20 22 
 24 25 26 27 29 30 31 33 35 37 38 39 
 40 41 45 48 50 52 56 
 45 
 1 3 5 6 7 8 9 10 11 12 13 14 
 16 17 18 19 20 24 25 27 29 31 32 33 
 34 35 36 37 39 40 41 42 43 44 45 47 
 48 49 50 51 52 53 54 55 56 
 40 
 1 2 3 4 7 8 9 10 11 13 14 16 
 17 20 23 25 26 28 29 30 31 34 35 36 
 37 38 39 40 41 42 43 45 46 49 50 51 
 52 53 55 57 
 34 
 2 3 4 5 7 8 9 10 17 18 19 20 
 22 23 24 30 31 32 33 34 35 38 40 41 
 43 46 47 49 50 51 52 54 56 57 
 7 
 3 11 25 33 35 45 47 
 24 
 1 5 6 11 20 21 22 23 24 27 29 35 
 37 40 41 44 45 46 47 50 51 52 53 55 
 11 
 2 8 9 11 15 19 22 33 39 56 57 
 51 
 1 2 3 4 5 6 8 9 10 11 12 13 
 14 15 16 17 18 19 20 21 22 23 25 26 
 27 28 29 30 31 32 33 34 35 37 38 39 
 40 41 42 43 45 47 48 49 50 51 52 53 
 55 56 57 
 6 
 9 23 25 28 29 31 
 56 
 1 2 3 4 5 6 7 8 9 10 11 12 
 13 14 15 16 17 18 19 20 21 22 24 25 
 26 27 28 29 30 31 32 33 34 35 36 37 
 38 39 40 41 42 43 44 45 46 47 48 49 
 50 51 52 53 54 55 56 57 
 34 
 3 5 9 10 12 13 15 16 18 19 21 23 
 26 27 28 31 32 33 35 36 37 40 42 45 
 46 48 49 50 51 52 53 54 56 57 
 52 
 1 3 4 5 7 8 9 10 11 13 14 15 
 16 17 18 19 20 22 23 24 25 26 28 29 
 30 31 32 33 34 35 36 37 38 39 40 41 
 42 43 44 45 46 47 48 49 50 51 52 53 
 54 55 56 57 
 20 
 2 3 8 12 18 22 23 26 30 33 35 36 
 38 41 46 47 48 49 51 52 
 21 
 1 2 8 9 12 15 16 17 18 20 21 22 
 27 30 31 33 35 38 41 49 56 
 52 
 1 2 3 5 6 7 9 10 11 12 13 14 
 15 16 17 19 20 21 22 23 24 25 26 27 
 28 29 30 31 32 33 34 35 37 38 39 40 
 41 42 43 44 45 46 47 48 50 51 52 53 
 54 55 56 57 
 12 
 5 6 8 14 17 18 22 26 31 32 34 44 
 40 
 1 3 5 7 8 10 11 12 14 16 17 18 
 19 20 21 22 23 24 25 26 28 31 32 34 
 35 36 38 39 40 41 43 44 45 46 48 49 
 50 51 54 55 
 38 
 1 3 4 6 7 13 14 16 17 18 21 22 
 23 24 25 27 28 29 30 31 32 35 36 37 
 38 39 40 43 46 47 49 50 51 52 54 55 
 56 57 
 19 
 3 6 9 11 15 16 17 20 25 28 30 31 
 38 43 44 46 50 51 53 
 11 
 1 12 23 25 29 30 32 39 40 50 53 
 28 
 3 6 8 9 10 11 14 16 20 21 23 24 
 26 27 30 34 37 39 42 44 45 47 48 49 
 51 53 56 57 
 20 
 1 2 5 6 9 10 15 16 18 20 23 25 
 26 27 28 44 48 51 54 56 
 27 
 1 3 5 8 10 15 18 22 23 26 27 29 
 30 31 32 35 37 38 39 40 43 45 47 48 
 50 51 54 
 52 
 1 2 3 4 5 6 7 9 10 11 12 13 
 14 15 16 17 18 19 20 21 23 24 25 27 
 28 29 30 31 32 33 34 35 36 37 38 39 
 42 43 44 45 46 47 48 49 50 51 52 53 
 54 55 56 57 
 48 
 1 2 3 5 6 8 10 11 12 13 14 16 
 17 18 20 21 22 23 24 25 26 27 28 29 
 30 31 32 33 34 35 36 38 41 42 43 44 
 45 46 47 48 49 50 51 52 54 55 56 57 
 54 
 1 2 3 4 5 6 7 8 9 10 11 12 
 13 14 15 17 18 19 20 21 22 23 24 26 
 27 28 29 30 31 32 33 34 35 36 37 38 
 39 40 41 42 43 44 45 46 47 48 49 50 
 51 52 53 54 55 57 
 2 
 6 10 
 34 
 1 3 4 5 6 7 8 10 12 13 14 18 
 21 22 24 26 27 29 32 34 37 38 40 42 
 43 44 47 49 50 51 52 53 55 56 
 52 
 1 2 4 5 6 7 8 9 10 11 12 13 
 14 15 17 18 19 20 21 22 23 24 25 26 
 27 28 29 30 31 32 33 34 35 36 37 38 
 39 40 41 42 43 45 48 49 50 51 52 53 
 54 55 56 57 
 14 
 1 4 6 9 12 13 18 27 33 37 38 42 
 53 54 
 2 
 30 43 
 4 
 31 43 44 56 
 23 
 2 4 9 10 11 14 15 18 20 21 30 32 
 33 34 35 36 39 40 43 47 49 51 57 
 37 
 3 5 6 8 9 12 15 16 17 18 19 20 
 21 23 24 26 27 29 30 32 34 35 37 38 
 39 41 42 43 44 45 46 47 49 50 51 52 
 54 
 43 
 1 2 3 4 5 6 7 8 9 11 13 14 
 15 17 18 19 21 23 24 25 26 27 28 29 
 32 33 34 35 40 41 42 43 44 45 46 47 
 48 50 51 52 55 56 57 
 51 
 1 2 3 4 6 7 8 9 10 11 12 15 
 16 17 18 19 20 21 22 23 24 25 26 27 
 28 29 31 32 33 34 35 36 37 38 39 40 
 43 44 45 46 47 48 49 50 51 52 53 54 
 55 56 57 
 2 
 34 44 
 35 
 1 2 3 5 6 7 8 10 11 12 14 15 
 16 17 18 19 20 21 23 24 25 26 28 29 
 30 37 40 43 46 50 51 52 53 54 56 
 27 
 1 2 4 7 12 14 15 16 18 19 20 22 
 23 28 29 31 35 37 40 42 43 44 46 49 
 51 54 55 
 22 
 1 3 5 10 15 16 20 21 22 23 24 26 
 33 36 37 39 43 46 47 49 53 57 
 45 
 1 2 3 4 5 6 7 8 9 12 13 15 
 16 17 18 20 22 24 25 26 27 28 31 32 
 33 34 35 36 37 38 39 40 41 42 43 46 
 47 49 50 52 53 54 55 56 57 
 53 
 1 3 4 5 6 7 8 9 10 11 12 13 
 14 15 16 18 19 20 21 22 23 24 26 27 
 28 29 30 31 32 33 34 35 36 37 38 40 
 41 42 43 44 45 46 47 48 49 50 51 52 
 53 54 55 56 57 
 12 
 4 6 11 17 21 31 34 36 37 44 47 53 
 47 
 1 2 3 4 6 7 8 9 10 11 13 14 
 15 16 18 19 20 21 23 24 26 27 28 29 
 30 31 34 35 36 38 39 40 41 42 44 45 
 46 48 49 50 51 52 53 54 55 56 57 
 37 
 2 3 4 7 9 12 13 15 16 17 18 19 
 20 21 23 24 25 26 28 29 30 31 33 34 
 35 36 42 43 45 47 48 49 50 52 53 54 
 55 
 55 
 1 2 3 4 5 6 7 8 9 10 11 12 
 13 14 15 16 17 18 19 20 21 22 23 24 
 25 26 27 28 29 30 31 32 33 34 35 37 
 38 39 40 41 42 43 44 45 46 47 48 49 
 50 51 52 53 54 55 56 
 29 
 1 3 5 6 7 9 11 13 14 15 16 17 
 18 21 22 26 29 31 32 36 39 41 42 44 
 45 47 50 54 55 
 42 
 2 3 4 5 7 8 9 11 12 14 17 18 
 19 20 21 24 25 26 27 28 29 31 32 33 
 34 35 36 37 39 40 42 43 44 45 46 48 
 49 50 51 52 56 57 
 46 
 1 3 4 5 6 7 8 11 12 14 15 16 
 17 18 19 20 21 22 24 25 26 28 29 30 
 31 33 34 35 37 38 39 41 42 43 45 46 
 47 48 49 50 51 52 54 55 56 57 
 46 
 1 3 4 5 6 7 8 9 10 11 12 14 
 15 16 17 18 19 21 22 23 24 25 27 28 
 30 31 32 33 34 35 36 40 41 42 43 44 
 45 46 48 49 50 51 52 53 55 56 
 46 
 1 2 4 5 7 8 9 10 11 12 13 14 
 15 16 17 18 19 20 21 22 26 27 28 30 
 31 32 33 34 36 37 38 40 41 42 43 44 
 46 48 49 50 51 52 53 54 56 57 
 19 
 1 9 10 11 15 20 22 23 24 27 31 38 
 39 40 42 47 48 52 55 
 29 
 2 3 4 5 8 9 10 11 12 13 15 16 
 20 21 26 27 28 34 35 36 37 39 41 42 
 46 49 52 54 56 
 57 
 1 2 3 4 5 6 7 8 9 10 11 12 
 13 14 15 16 17 18 19 20 21 22 23 24 
 25 26 27 28 29 30 31 32 33 34 35 36 
 37 38 39 40 41 42 43 44 45 46 47 48 
 49 50 51 52 53 54 55 56 57 
 26 
 3 4 8 9 10 13 15 17 27 29 30 31 
 32 36 41 42 43 46 48 49 51 52 53 54 
 56 57 
 15 
 1 3 5 15 20 22 23 26 35 37 38 40 
 41 50 51 
 47 
 1 2 5 6 7 8 9 12 13 14 15 16 
 17 18 19 20 21 23 25 26 27 29 30 31 
 32 34 35 36 37 38 39 40 41 42 43 44 
 45 46 47 48 49 51 53 54 55 56 57 
 6 
 21 30 34 47 50 54 
 37 
 2 3 4 5 6 8 12 13 18 20 22 25 
 26 29 30 31 32 33 35 36 37 38 39 40 
 41 42 46 48 49 50 51 52 53 54 55 56 
 57 
 55 
 1 2 3 4 5 6 7 8 9 10 11 12 
 13 14 15 16 17 18 19 20 22 23 24 25 
 26 27 28 29 30 31 32 33 34 35 37 38 
 39 40 41 42 43 44 45 46 47 48 49 50 
 51 52 53 54 55 56 57 
 53 
 1 2 3 4 5 6 7 8 9 10 11 12 
 13 14 15 16 18 19 20 21 22 23 24 25 
 26 27 29 30 31 32 33 34 35 36 37 38 
 40 41 42 43 44 45 46 48 49 50 51 52 
 53 54 55 56 57 
 32 
 1 2 3 4 5 6 7 8 9 13 14 16 
 22 25 27 30 31 33 36 37 38 39 41 42 
 43 44 46 47 49 52 55 56 
 39 
 1 2 3 4 6 7 8 9 10 12 14 15 
 16 17 19 21 22 23 24 25 26 28 30 32 
 33 34 35 41 42 43 44 48 49 50 51 54 
 55 56 57 
 44 
 1 3 4 5 6 8 9 11 12 14 15 18 
 19 20 21 22 23 24 26 27 28 29 31 32 
 33 34 35 36 38 39 40 41 42 43 44 45 
 46 48 50 51 52 53 54 57 
 55 
 1 2 3 4 5 6 7 8 9 10 11 12 
 13 14 15 16 17 18 19 20 22 23 24 25 
 26 27 28 29 30 31 32 33 34 35 36 37 
 38 39 40 41 43 44 45 46 47 48 49 50 
 51 52 53 54 55 56 57 
 9 
 2 10 12 16 22 29 36 46 50 
 4 
 6 26 35 57 
 37 
 2 4 7 8 9 11 13 15 16 19 20 21 
 22 23 24 25 26 28 30 31 33 34 35 36 
 37 38 39 40 41 44 46 48 50 51 54 55 
 56 
 57 
 1 2 3 4 5 6 7 8 9 10 11 12 
 13 14 15 16 17 18 19 20 21 22 23 24 
 25 26 27 28 29 30 31 32 33 34 35 36 
 37 38 39 40 41 42 43 44 45 46 47 48 
 49 50 51 52 53 54 55 56 57 
 24 
 7 8 9 10 13 14 15 16 17 18 19 33 
 36 38 39 40 42 43 47 48 49 51 52 54 
 6 
 24 34 37 44 55 57 
 46 
 1 2 3 4 5 6 8 9 10 11 13 14 
 15 16 17 18 19 20 21 23 25 26 27 28 
 29 30 31 33 35 37 38 39 40 41 42 43 
 44 45 47 49 52 53 54 55 56 57 
 17 
 1 6 11 17 18 24 28 29 35 36 37 40 
 44 51 52 54 56 
 45 
 2 4 5 8 9 11 12 14 16 17 18 19 
 20 21 22 24 25 26 27 28 29 30 31 32 
 33 34 35 36 37 38 39 40 41 42 43 44 
 45 46 47 50 52 54 55 56 57 
 8 
 19 26 32 39 40 45 46 52 
 7 
 12 13 24 26 41 42 50 
 44 
 1 2 3 5 6 7 8 9 10 11 12 14 
 15 16 17 18 19 20 22 23 24 25 26 28 
 30 31 33 35 36 37 39 40 42 43 45 48 
 49 50 51 52 53 54 55 56 
 22 
 3 5 6 7 8 10 11 12 15 17 18 20 
 21 27 31 36 37 38 41 46 48 54 
 20 
 2 6 9 10 11 12 21 23 24 27 28 29 
 37 39 40 41 47 49 54 55 
 12 
 4 11 12 13 20 23 27 29 40 47 50 55 
 21 
 3 7 10 13 17 18 19 20 21 23 26 29 
 30 31 35 39 40 44 46 51 56 
 30 
 2 3 6 9 10 11 13 15 16 17 19 20 
 21 22 25 26 27 28 34 35 38 39 42 43 
 45 47 48 50 53 54 
 28 
 3 6 9 10 13 15 16 17 18 22 23 26 
 27 28 29 31 32 34 35 38 40 43 44 51 
 52 53 56 57 
 28 
 1 2 3 4 6 10 11 12 16 18 19 21 
 23 24 26 28 29 30 34 35 36 40 41 45 
 49 50 51 56 
 19 
 3 7 10 16 17 18 19 24 25 26 27 30 
 31 36 42 54 55 56 57 
 41 
 1 2 3 4 5 6 7 8 9 10 11 12 
 13 14 16 17 19 22 23 24 25 27 29 30 
 32 33 35 37 40 43 44 45 47 49 51 52 
 53 54 55 56 57 
 12 
 6 10 15 21 23 24 26 34 45 52 53 57 
 52 
 1 2 3 4 6 7 8 9 10 11 12 13 
 14 15 16 17 18 19 21 22 23 24 25 26 
 27 28 29 30 31 32 33 34 35 36 37 38 
 40 41 42 43 44 45 47 48 49 50 51 52 
 53 55 56 57 
 38 
 1 2 5 7 8 9 10 11 13 15 16 17 
 18 21 22 24 25 26 27 28 29 30 32 33 
 35 36 39 40 41 42 43 46 48 50 54 55 
 56 57 
 27 
 5 6 10 12 13 15 16 18 19 20 22 25 
 26 27 33 35 37 38 39 40 43 47 49 52 
 53 54 57 
 44 
 1 2 3 4 5 6 8 9 10 12 13 14 
 15 16 19 20 24 25 26 29 30 31 32 33 
 34 35 36 37 38 39 40 41 42 43 45 46 
 47 48 49 50 53 54 55 56 
 25 
 1 4 5 6 14 15 16 17 20 22 24 25 
 28 33 34 35 41 42 43 44 45 49 53 56 
 57 
 50 
 1 2 3 4 7 9 11 12 13 14 15 16 
 17 18 19 21 22 23 24 25 26 27 28 29 
 30 31 32 34 35 36 37 38 39 41 42 43 
 44 45 46 47 48 49 50 51 52 53 54 55 
 56 57 
 37 
 1 2 3 4 5 6 7 8 9 14 15 16 
 17 19 20 22 25 27 28 29 30 32 34 35 
 36 39 40 41 42 43 45 47 48 50 51 53 
 57 
 19 
 1 6 10 12 15 17 18 20 25 30 35 36 
 41 42 43 44 48 50 55 
 14 
 1 10 11 24 26 29 34 35 36 41 45 50 
 51 56 
 3 
 3 38 52 
 33 
 1 2 6 7 8 9 12 14 15 18 19 20 
 22 23 24 25 27 29 32 34 37 40 42 44 
 46 47 48 50 51 52 53 54 55 
 28 
 2 7 8 11 14 15 16 17 18 19 20 23 
 24 25 27 29 32 34 36 37 40 46 49 51 
 53 55 56 57 
 54 
 1 2 3 4 5 6 7 8 9 10 11 12 
 13 14 15 16 17 18 19 20 21 22 23 24 
 25 26 27 28 29 30 31 32 33 34 36 37 
 38 39 40 41 42 43 44 45 46 47 48 49 
 50 51 52 54 55 56 
 15 
 5 7 9 10 11 12 15 26 29 30 37 43 
 46 47 54 
 40 
 1 2 5 8 9 10 11 12 13 15 16 17 
 18 19 22 25 27 28 29 30 31 33 34 35 
 38 41 42 43 44 45 46 47 48 50 51 53 
 54 55 56 57 
 54 
 2 3 4 5 6 7 8 9 10 11 13 14 
 15 16 17 18 19 20 21 22 23 24 25 26 
 27 28 29 30 31 32 33 34 35 36 37 38 
 39 40 41 43 44 45 46 47 48 49 50 51 
 52 53 54 55 56 57 
 45 
 2 3 4 5 6 7 8 9 11 12 13 14 
 15 17 20 21 22 23 24 25 28 29 30 31 
 32 33 35 37 38 39 40 41 42 43 44 45 
 46 48 49 50 52 53 54 55 56 
 